language ESSENCE' 1.0

letting jobs = 102
letting horizon = 805
letting resourcesRenew = 2
letting resourcesNonrenew = 2
letting resourceLimits = [77, 69, 476, 479]
letting successors = [[2, 3, 4, 5, 6, 7, 8, 9, 10, 11, 12, 13, 14, 15, 16, 18, 19, 20, 21, 23, 25, 28, 29, 30, 32, 33, 36, 52], [98, 97, 95, 71, 65, 61, 57, 53, 48, 41, 24, 17], [97, 96, 71, 65, 61, 56, 53, 45, 44, 22, 17], [101, 97, 69, 56, 55, 51, 50, 46, 42, 40, 27, 22], [100, 99, 97, 96, 94, 69, 68, 67, 64, 60, 59, 56, 50, 49, 45, 34, 26], [97, 91, 85, 61, 54, 47, 45, 40, 17], [101, 100, 98, 97, 91, 89, 87, 82, 69, 67, 65, 62, 61, 57, 56, 53, 51, 42, 31], [98, 97, 93, 71, 68, 58, 57, 56, 55, 42, 40, 22], [100, 99, 97, 95, 91, 90, 89, 88, 83, 78, 68, 61, 58, 51, 48, 47, 40, 34], [97, 96, 85, 82, 67, 66, 65, 61, 17], [98, 97, 93, 91, 86, 85, 83, 71, 66, 64, 58, 57, 55, 53, 50, 45, 40], [97, 96, 95, 94, 92, 91, 87, 86, 81, 70, 69, 66, 63, 55, 51, 43, 35], [100, 99, 93, 91, 89, 88, 86, 85, 83, 70, 69, 67, 66, 63, 58, 56, 55, 54, 48, 41], [101, 100, 99, 98, 96, 95, 92, 91, 87, 86, 85, 84, 81, 80, 77, 68, 66, 65, 62, 60, 59, 50, 43], [98, 97, 96, 92, 81, 68, 58, 55, 51, 45, 43, 39], [97, 95, 94, 87, 86, 83, 74, 69, 67, 66, 63, 59, 55, 51, 49, 43], [101, 100, 93, 92, 87, 81, 70, 69, 68, 62, 59, 50, 31], [96, 94, 93, 92, 91, 89, 88, 87, 86, 85, 82, 81, 80, 79, 77, 68, 65, 64, 63, 60, 59, 57], [97, 93, 92, 91, 87, 86, 84, 82, 81, 80, 77, 75, 66, 60, 58, 37], [99, 97, 89, 86, 71, 57, 56, 55, 45, 40], [89, 88, 69, 68, 63, 62, 60, 42, 38], [95, 90, 89, 86, 84, 79, 74, 67, 66, 64, 59, 39], [101, 97, 94, 90, 87, 86, 85, 77, 74, 65, 64, 63, 60, 45], [91, 90, 88, 86, 85, 83, 81, 79, 78, 75, 69, 67, 66, 64, 56, 55], [98, 96, 93, 92, 89, 87, 86, 85, 84, 83, 79, 78, 77, 76, 75, 72, 67, 62], [92, 91, 89, 87, 83, 82, 81, 80, 79, 78, 75, 66, 65, 63, 58], [100, 95, 92, 91, 86, 85, 82, 79, 77, 76, 73, 66, 62, 53], [98, 97, 93, 92, 91, 90, 86, 85, 84, 83, 79, 78, 77, 75, 74, 67, 65], [94, 92, 91, 88, 87, 84, 83, 82, 80, 75, 73, 70, 62, 50], [98, 94, 93, 91, 89, 87, 86, 83, 79, 78, 74, 73, 63, 59], [99, 94, 90, 88, 86, 79, 77, 74, 73, 72, 64, 63, 60], [96, 94, 91, 87, 83, 81, 80, 78, 75, 74, 72, 56], [94, 93, 91, 85, 83, 82, 81, 76, 75, 74, 55], [101, 93, 86, 85, 82, 80, 79, 77, 65, 57], [99, 88, 83, 82, 78, 77, 68, 65, 62, 59], [98, 96, 94, 90, 85, 82, 81, 77, 76, 75, 74, 73], [95, 94, 89, 85, 78, 73, 72, 64, 63, 62], [97, 93, 84, 83, 82, 81, 78, 77, 75, 73, 72], [91, 88, 87, 85, 82, 77, 75, 73, 60], [96, 94, 87, 81, 75, 72, 65, 63], [96, 92, 79, 78, 77, 76, 74, 59], [95, 92, 86, 79, 76, 75, 74, 66], [90, 89, 88, 82, 79, 75, 72, 64], [101, 92, 88, 81, 79, 77, 72, 62], [95, 88, 84, 82, 80, 78, 75, 72], [100, 99, 93, 90, 81, 77, 75, 72], [98, 94, 86, 84, 74, 73, 67], [92, 87, 82, 81, 80, 79, 74], [98, 91, 90, 85, 82, 81, 73], [90, 89, 79, 78, 74], [93, 85, 80, 79, 75], [87, 85, 84, 79, 73], [81, 80, 59], [95, 90, 81, 72], [80, 77, 73], [84, 76, 73], [76, 74, 72], [73, 62], [75, 72], [83, 78], [76, 72], [74], [76], [76], [73], [72], [80], [72], [84], [74], [73], [102], [102], [102], [102], [102], [102], [102], [102], [102], [102], [102], [102], [102], [102], [102], [102], [102], [102], [102], [102], [102], [102], [102], [102], [102], [102], [102], [102], [102], [102], []]
letting durations = [[0], [3, 9, 10], [5, 9, 10], [6, 7, 10], [6, 8, 10], [2, 5, 6], [2, 3, 9], [2, 5, 6], [3, 4, 8], [2, 7, 9], [5, 6, 7], [1, 5, 5], [1, 4, 9], [4, 4, 8], [7, 8, 9], [1, 4, 10], [1, 6, 7], [2, 7, 8], [1, 4, 7], [4, 5, 6], [2, 9, 10], [2, 6, 9], [4, 5, 8], [2, 7, 8], [3, 5, 7], [2, 3, 10], [2, 9, 10], [2, 5, 5], [2, 7, 8], [2, 3, 10], [8, 9, 9], [2, 4, 7], [1, 4, 8], [1, 3, 10], [2, 7, 8], [6, 6, 7], [1, 3, 10], [1, 4, 7], [2, 6, 6], [3, 7, 8], [7, 9, 10], [1, 1, 6], [3, 3, 10], [1, 3, 10], [4, 7, 10], [2, 3, 5], [6, 8, 9], [4, 5, 10], [1, 5, 6], [3, 4, 5], [8, 9, 10], [2, 7, 8], [1, 5, 9], [5, 7, 8], [1, 5, 8], [2, 3, 9], [1, 2, 5], [2, 6, 9], [3, 6, 7], [9, 9, 10], [4, 4, 6], [8, 8, 10], [1, 8, 10], [4, 7, 10], [5, 7, 10], [1, 2, 4], [3, 6, 8], [6, 7, 9], [5, 8, 9], [7, 8, 9], [2, 4, 9], [8, 8, 9], [2, 3, 3], [4, 5, 10], [5, 8, 10], [3, 4, 5], [2, 5, 10], [4, 7, 10], [1, 3, 10], [1, 4, 7], [1, 2, 5], [1, 5, 7], [6, 8, 9], [2, 3, 5], [2, 8, 10], [2, 3, 5], [2, 2, 8], [5, 6, 9], [1, 2, 7], [4, 6, 8], [4, 6, 8], [1, 2, 4], [2, 8, 9], [2, 6, 8], [6, 9, 10], [4, 5, 6], [2, 3, 7], [1, 4, 6], [1, 2, 8], [2, 3, 6], [2, 9, 9], [0]]
letting resourceUsage = [[[0, 0, 0, 0]], [[0, 6, 9, 7], [0, 5, 6, 5], [6, 0, 3, 5]], [[4, 0, 8, 6], [0, 5, 7, 5], [0, 2, 5, 5]], [[3, 0, 8, 8], [2, 0, 7, 7], [2, 0, 6, 7]], [[0, 3, 7, 6], [6, 0, 5, 6], [5, 0, 4, 6]], [[0, 9, 7, 6], [0, 8, 5, 3], [1, 0, 4, 1]], [[7, 0, 10, 5], [0, 4, 9, 4], [7, 0, 8, 4]], [[0, 2, 4, 9], [0, 1, 3, 8], [0, 1, 3, 6]], [[0, 10, 8, 8], [3, 0, 7, 6], [2, 0, 6, 4]], [[6, 0, 10, 5], [0, 7, 9, 3], [1, 0, 8, 3]], [[6, 0, 3, 6], [5, 0, 2, 5], [5, 0, 1, 4]], [[0, 7, 4, 10], [5, 0, 3, 10], [0, 4, 2, 10]], [[6, 0, 8, 3], [5, 0, 5, 3], [4, 0, 4, 3]], [[0, 6, 8, 7], [6, 0, 5, 6], [0, 5, 3, 6]], [[7, 0, 2, 3], [6, 0, 1, 2], [0, 2, 1, 2]], [[0, 6, 9, 8], [8, 0, 6, 5], [8, 0, 5, 4]], [[3, 0, 6, 6], [0, 6, 6, 4], [3, 0, 4, 3]], [[0, 4, 3, 6], [5, 0, 3, 5], [0, 3, 3, 4]], [[5, 0, 8, 10], [0, 4, 8, 10], [3, 0, 7, 10]], [[7, 0, 9, 8], [4, 0, 8, 8], [0, 2, 7, 8]], [[0, 10, 7, 7], [3, 0, 4, 7], [3, 0, 1, 6]], [[6, 0, 8, 9], [4, 0, 7, 8], [3, 0, 4, 6]], [[10, 0, 6, 2], [8, 0, 6, 2], [0, 3, 6, 2]], [[0, 6, 6, 7], [8, 0, 4, 5], [0, 5, 4, 4]], [[4, 0, 7, 4], [3, 0, 6, 3], [0, 1, 5, 2]], [[0, 6, 7, 5], [0, 6, 7, 3], [4, 0, 7, 2]], [[6, 0, 2, 4], [3, 0, 2, 3], [1, 0, 2, 3]], [[9, 0, 3, 3], [8, 0, 3, 2], [0, 4, 1, 1]], [[4, 0, 3, 7], [4, 0, 3, 6], [0, 1, 3, 5]], [[2, 0, 1, 5], [0, 4, 1, 5], [0, 4, 1, 1]], [[0, 9, 5, 8], [0, 9, 3, 4], [1, 0, 2, 3]], [[0, 9, 4, 2], [4, 0, 2, 1], [0, 6, 2, 1]], [[0, 5, 6, 6], [0, 5, 5, 6], [1, 0, 4, 6]], [[6, 0, 8, 8], [6, 0, 7, 7], [6, 0, 5, 5]], [[6, 0, 10, 7], [0, 4, 10, 7], [0, 4, 10, 3]], [[9, 0, 10, 6], [0, 8, 7, 6], [9, 0, 2, 6]], [[0, 5, 10, 7], [7, 0, 9, 6], [0, 4, 9, 4]], [[8, 0, 7, 10], [7, 0, 4, 8], [5, 0, 3, 4]], [[6, 0, 1, 7], [4, 0, 1, 7], [0, 1, 1, 7]], [[0, 6, 7, 4], [0, 5, 7, 4], [3, 0, 7, 3]], [[0, 5, 9, 8], [7, 0, 6, 7], [0, 1, 4, 7]], [[0, 9, 9, 4], [6, 0, 9, 4], [2, 0, 9, 4]], [[9, 0, 8, 10], [0, 6, 6, 10], [1, 0, 6, 10]], [[0, 7, 7, 6], [7, 0, 4, 4], [0, 6, 4, 3]], [[0, 9, 9, 6], [0, 9, 7, 6], [0, 8, 1, 6]], [[0, 6, 9, 5], [0, 6, 6, 4], [0, 4, 5, 4]], [[10, 0, 9, 7], [0, 3, 8, 5], [6, 0, 8, 5]], [[5, 0, 10, 8], [0, 4, 8, 8], [2, 0, 8, 8]], [[6, 0, 8, 1], [0, 2, 6, 1], [4, 0, 5, 1]], [[0, 8, 9, 3], [0, 7, 6, 3], [3, 0, 5, 3]], [[0, 8, 6, 8], [0, 7, 4, 7], [0, 7, 3, 5]], [[7, 0, 5, 3], [0, 6, 5, 4], [0, 6, 5, 3]], [[10, 0, 8, 8], [0, 5, 7, 7], [10, 0, 5, 5]], [[10, 0, 9, 5], [9, 0, 7, 4], [9, 0, 5, 3]], [[0, 6, 7, 7], [2, 0, 7, 7], [1, 0, 7, 7]], [[0, 8, 3, 4], [0, 6, 2, 2], [0, 4, 2, 2]], [[6, 0, 7, 3], [6, 0, 6, 3], [4, 0, 5, 3]], [[7, 0, 5, 7], [0, 7, 4, 6], [0, 5, 4, 3]], [[10, 0, 2, 9], [8, 0, 2, 4], [0, 3, 1, 3]], [[6, 0, 6, 8], [0, 6, 4, 5], [0, 4, 1, 4]], [[0, 9, 10, 6], [2, 0, 7, 4], [2, 0, 6, 2]], [[0, 8, 6, 3], [8, 0, 5, 3], [8, 0, 4, 3]], [[10, 0, 5, 5], [0, 6, 3, 4], [0, 4, 2, 4]], [[0, 4, 2, 2], [0, 4, 2, 1], [1, 0, 2, 1]], [[9, 0, 6, 6], [0, 10, 6, 6], [0, 10, 5, 6]], [[10, 0, 6, 9], [0, 5, 6, 8], [0, 4, 6, 6]], [[0, 6, 7, 3], [0, 5, 7, 3], [5, 0, 7, 2]], [[5, 0, 4, 3], [0, 6, 4, 3], [0, 6, 1, 2]], [[6, 0, 5, 4], [5, 0, 4, 4], [0, 1, 4, 4]], [[0, 5, 5, 8], [6, 0, 3, 5], [0, 4, 2, 5]], [[10, 0, 6, 9], [4, 0, 6, 7], [4, 0, 6, 6]], [[0, 5, 6, 7], [6, 0, 5, 7], [2, 0, 5, 6]], [[0, 3, 4, 9], [0, 3, 3, 4], [1, 0, 3, 2]], [[0, 7, 9, 8], [3, 0, 5, 6], [0, 1, 3, 4]], [[0, 9, 5, 3], [3, 0, 4, 2], [3, 0, 4, 1]], [[0, 5, 3, 3], [7, 0, 2, 3], [0, 3, 2, 2]], [[6, 0, 7, 4], [4, 0, 6, 3], [0, 9, 5, 3]], [[8, 0, 6, 7], [0, 8, 4, 7], [6, 0, 2, 5]], [[0, 8, 5, 4], [3, 0, 3, 4], [3, 0, 3, 3]], [[0, 10, 5, 7], [7, 0, 5, 5], [6, 0, 3, 4]], [[0, 8, 1, 8], [0, 7, 1, 6], [8, 0, 1, 4]], [[0, 8, 10, 3], [1, 0, 9, 3], [1, 0, 8, 3]], [[0, 5, 4, 4], [4, 0, 4, 4], [2, 0, 3, 3]], [[0, 5, 3, 7], [0, 4, 2, 6], [0, 4, 2, 4]], [[7, 0, 3, 8], [6, 0, 2, 3], [4, 0, 2, 1]], [[5, 0, 9, 9], [5, 0, 7, 8], [0, 4, 6, 8]], [[0, 2, 5, 10], [2, 0, 3, 8], [0, 1, 2, 4]], [[0, 2, 7, 10], [0, 2, 4, 7], [0, 2, 2, 6]], [[0, 8, 8, 9], [0, 7, 8, 8], [4, 0, 8, 8]], [[0, 5, 7, 7], [3, 0, 7, 6], [0, 1, 7, 6]], [[0, 9, 6, 9], [0, 8, 4, 7], [0, 8, 2, 7]], [[10, 0, 9, 5], [0, 4, 5, 5], [6, 0, 3, 1]], [[7, 0, 7, 3], [0, 3, 6, 2], [0, 3, 6, 1]], [[5, 0, 3, 2], [0, 8, 3, 2], [0, 6, 2, 2]], [[6, 0, 10, 8], [0, 7, 9, 7], [0, 7, 7, 7]], [[0, 9, 10, 7], [0, 6, 10, 3], [0, 3, 10, 2]], [[0, 7, 6, 8], [4, 0, 5, 7], [4, 0, 4, 5]], [[0, 1, 4, 8], [0, 1, 4, 7], [0, 1, 4, 6]], [[7, 0, 8, 8], [7, 0, 5, 7], [5, 0, 5, 6]], [[4, 0, 8, 8], [4, 0, 4, 8], [3, 0, 4, 8]], [[5, 0, 5, 8], [5, 0, 5, 7], [0, 8, 3, 7]], [[0, 0, 0, 0]]]
